[[14, 53, 59, 11, 66, 65, 38, 10, 31, 58, 72, 12, 40, 39, 9], [25, 55, 18, 50, 32, 24, 49, 3, 44, 16, 51, 6, 2], [62, 73, 33, 63, 23, 56, 43, 41, 42, 64, 22, 61, 28, 74, 21], [47, 69, 36, 71, 60, 70, 20, 37, 5, 15, 57, 13, 27, 45, 29, 48], [30, 4, 68, 75, 76, 17, 26, 67, 34, 52, 46, 7, 35, 8, 54, 19]]